<instance format="XCSP3" type="COP">
<variables>
<array id="eme" note="eme[i]: frequence d'emission de la station i" size="[50]">
<domain for="eme[0]"> 14 28 56 70 98 126 154 168 182 196 210 224 238 252 280 294 308 322 336 350 364 378 392 406 434 448 462 476 490 504 518 532 546 560 602 630 644 672 686 700 714 728 </domain>
<domain for="eme[1]"> 14 28 42 56 70 84 98 112 126 140 154 168 182 210 224 238 252 266 280 308 322 350 364 378 392 406 420 448 462 476 490 504 518 532 546 560 574 588 602 616 630 644 658 672 686 700 714 728 </domain>
<domain for="eme[2]"> 14 28 42 56 70 84 98 112 126 140 154 168 182 196 210 238 252 266 280 294 308 322 336 350 364 378 392 406 420 448 462 476 490 504 518 532 560 588 602 616 630 644 658 672 686 700 728 </domain>
<domain for="eme[3]"> 28 42 56 70 112 140 154 168 182 210 238 252 266 280 294 308 322 336 350 364 378 392 406 420 434 448 462 476 490 504 518 532 546 560 574 588 602 644 658 672 686 700 714 728 </domain>
<domain for="eme[4]"> 28 56 70 84 112 126 140 154 168 182 196 210 224 238 252 266 280 294 322 350 364 378 392 420 434 462 476 490 504 518 532 546 588 602 616 630 644 658 672 686 700 714 728 </domain>
<domain for="eme[5] eme[7] eme[11..12] eme[21] eme[33] eme[44]"> 14 28 42 56 70 84 98 112 126 140 154 168 182 196 210 224 238 252 266 280 294 308 322 336 350 364 378 392 406 420 434 448 462 476 490 504 518 532 546 560 574 588 602 616 630 644 658 672 686 700 714 728 </domain>
<domain for="eme[6]"> 14 28 42 56 98 112 126 140 154 168 182 196 210 238 266 280 294 308 322 336 350 364 378 392 406 434 448 462 476 504 518 532 546 560 588 602 616 630 672 686 700 714 728 </domain>
<domain for="eme[8]"> 14 28 42 56 98 112 126 140 154 168 182 224 238 252 266 280 294 308 322 336 350 364 378 406 420 434 448 462 476 490 504 560 588 602 616 630 644 658 672 686 700 714 </domain>
<domain for="eme[9]"> 14 28 42 56 70 84 98 112 126 140 154 168 182 196 224 238 252 266 280 294 308 322 336 350 364 378 392 406 420 434 448 462 476 490 504 518 532 546 560 574 588 616 630 644 658 672 686 700 714 728 </domain>
<domain for="eme[10]"> 14 28 42 70 84 98 112 140 154 168 182 196 210 224 238 252 266 280 308 322 336 364 378 406 420 434 448 462 476 490 504 518 532 546 574 588 602 616 630 644 658 672 686 700 728 </domain>
<domain for="eme[13]"> 14 28 56 70 84 98 112 126 140 154 168 182 196 210 224 238 266 280 294 308 322 350 364 378 392 406 420 434 462 476 490 504 532 546 560 574 602 630 644 658 672 700 714 728 </domain>
<domain for="eme[14]"> 28 42 56 70 84 98 112 126 140 154 168 182 196 210 238 252 266 280 294 322 336 350 364 378 392 406 420 434 448 462 476 490 504 518 532 546 560 574 588 602 616 630 644 658 672 686 700 714 728 </domain>
<domain for="eme[15]"> 14 28 42 56 70 98 112 126 140 168 182 196 210 224 238 252 266 280 294 308 322 336 350 364 378 392 406 420 434 448 462 476 490 504 518 532 546 560 574 588 602 616 630 644 658 672 686 700 714 728 </domain>
<domain for="eme[16]"> 28 42 56 70 84 98 112 126 140 154 182 196 210 224 238 252 266 308 322 336 350 364 378 392 434 462 476 490 504 518 532 546 560 574 588 602 616 630 644 658 672 686 700 714 728 </domain>
<domain for="eme[17]"> 14 28 42 56 70 84 98 112 126 140 154 168 196 210 224 238 252 266 280 294 322 336 350 364 378 392 406 420 434 448 462 476 490 504 532 560 574 588 602 616 630 644 658 672 686 714 728 </domain>
<domain for="eme[18]"> 14 42 70 84 98 112 126 140 182 196 210 224 238 252 266 280 294 322 350 364 378 392 420 434 448 462 476 490 518 546 588 602 616 630 644 658 672 686 700 714 728 </domain>
<domain for="eme[19]"> 14 56 70 84 98 112 126 140 154 168 182 196 210 224 252 266 280 308 322 350 378 406 448 462 476 490 504 518 532 546 560 574 588 602 630 644 658 672 686 700 714 </domain>
<domain for="eme[20]"> 14 28 42 56 70 84 98 112 126 140 154 168 182 196 210 224 238 252 266 280 294 308 322 336 350 364 378 392 434 448 462 476 490 504 532 546 560 574 588 602 616 630 644 658 672 686 700 714 728 </domain>
<domain for="eme[22]"> 14 28 42 56 70 84 98 112 126 140 154 196 210 224 238 252 266 308 322 336 350 364 392 406 420 434 448 462 476 504 532 546 602 616 630 644 658 672 686 700 714 728 </domain>
<domain for="eme[23]"> 14 28 42 70 84 98 112 126 140 154 168 182 196 210 224 238 252 280 294 322 336 350 364 378 392 406 420 434 448 462 476 504 518 532 546 560 574 588 602 630 644 658 672 686 700 728 </domain>
<domain for="eme[24]"> 28 42 56 70 98 112 126 140 168 196 210 224 238 252 266 280 294 308 350 364 378 392 420 434 448 462 476 490 504 518 532 560 574 602 616 630 672 686 714 728 </domain>
<domain for="eme[25]"> 14 28 56 70 84 98 112 140 154 168 182 196 224 238 252 266 280 294 308 322 336 350 378 392 420 434 448 462 476 518 532 546 560 574 588 602 616 630 644 658 672 700 714 728 </domain>
<domain for="eme[26]"> 42 56 84 98 112 126 140 154 168 196 210 224 238 252 266 280 294 308 336 350 364 378 392 406 420 434 448 462 476 490 504 518 532 546 560 574 602 630 644 658 672 686 700 714 </domain>
<domain for="eme[27]"> 14 28 42 56 70 84 98 112 126 154 168 196 210 224 238 252 266 280 294 308 322 336 350 364 378 392 406 420 434 448 462 476 504 518 532 560 574 588 602 616 630 644 658 672 686 700 714 </domain>
<domain for="eme[28]"> 14 28 42 56 70 84 98 112 126 140 154 168 182 196 210 238 252 266 294 308 322 336 350 364 378 392 406 420 434 448 462 476 490 504 518 532 546 560 574 588 602 616 630 644 658 672 686 700 714 728 </domain>
<domain for="eme[29]"> 14 42 70 84 98 112 126 140 154 168 182 196 210 224 238 252 280 294 322 336 350 378 392 406 420 434 448 462 490 504 518 546 560 574 588 602 616 630 644 658 700 714 </domain>
<domain for="eme[30]"> 14 28 42 56 70 84 98 112 126 140 154 168 182 196 210 224 238 252 266 280 294 308 322 336 364 378 392 406 420 434 448 476 490 504 518 532 546 560 574 588 602 616 630 644 658 672 686 700 728 </domain>
<domain for="eme[31]"> 28 42 56 70 112 140 154 196 210 238 266 280 294 308 322 350 364 378 392 406 420 434 448 462 476 490 504 518 532 546 560 574 588 602 616 630 644 658 672 686 700 728 </domain>
<domain for="eme[32]"> 14 28 42 56 70 84 98 112 126 140 154 168 182 196 210 224 238 252 266 280 294 308 322 336 350 364 392 406 434 448 462 476 490 504 518 532 546 560 574 588 602 616 630 644 658 672 686 700 714 </domain>
<domain for="eme[34]"> 14 28 42 56 70 84 98 112 126 140 154 168 182 196 210 224 238 252 266 280 294 322 336 350 364 378 392 406 420 434 448 462 476 490 504 532 546 560 574 588 602 616 630 644 658 672 686 700 714 728 </domain>
<domain for="eme[35]"> 14 28 42 56 70 84 98 112 126 140 154 168 182 196 210 224 252 266 280 294 308 322 336 364 378 392 406 420 434 448 462 476 490 504 518 532 546 560 574 588 602 616 630 644 658 672 686 700 728 </domain>
<domain for="eme[36]"> 14 28 42 56 70 84 112 126 140 154 168 182 210 224 238 252 266 280 294 308 322 336 350 378 392 406 434 448 476 490 504 518 532 560 574 602 616 630 644 658 672 686 700 714 </domain>
<domain for="eme[37]"> 14 28 42 56 84 98 126 154 168 182 196 210 224 252 266 280 294 308 322 336 350 392 406 420 434 448 462 476 490 504 518 546 560 574 602 616 644 658 672 686 700 728 </domain>
<domain for="eme[38]"> 14 28 42 56 70 84 98 112 126 140 154 168 182 196 210 224 252 266 280 294 308 322 336 350 364 378 392 406 420 448 462 476 490 504 518 532 546 560 574 588 602 616 644 658 672 686 700 714 728 </domain>
<domain for="eme[39]"> 14 28 42 84 98 112 126 154 168 182 196 210 224 238 252 266 280 294 308 322 336 350 364 378 392 406 420 434 448 462 490 504 518 532 546 560 574 588 616 630 644 658 686 714 728 </domain>
<domain for="eme[40]"> 14 28 42 56 70 84 98 112 126 140 154 168 182 210 224 238 252 266 280 294 308 322 336 350 364 378 392 406 434 448 462 476 490 504 518 532 560 574 588 602 616 630 644 658 672 686 700 714 728 </domain>
<domain for="eme[41]"> 28 42 70 84 112 140 154 168 182 196 210 224 238 252 266 280 294 322 350 364 378 392 406 420 434 448 462 476 490 518 532 546 560 574 602 616 658 686 700 714 728 </domain>
<domain for="eme[42]"> 14 28 56 70 98 112 140 168 182 196 210 224 238 252 266 280 294 308 322 336 350 364 392 406 434 448 462 476 490 504 518 532 546 560 588 602 616 630 644 672 700 728 </domain>
<domain for="eme[43]"> 14 28 42 56 70 84 126 154 182 196 210 224 238 266 280 294 308 336 364 392 406 434 448 462 476 490 504 532 546 560 574 588 616 630 644 658 672 686 700 714 </domain>
<domain for="eme[45]"> 56 70 84 98 112 126 154 168 182 196 210 224 238 252 266 280 294 308 322 336 350 364 378 392 406 420 434 448 462 518 532 560 574 588 616 630 644 658 672 700 714 </domain>
<domain for="eme[46]"> 14 28 42 56 70 84 98 112 126 140 154 168 182 196 224 238 252 266 280 294 308 322 336 350 364 378 392 406 420 434 462 476 490 504 518 532 546 560 574 588 602 630 644 658 672 686 714 728 </domain>
<domain for="eme[47]"> 28 42 56 70 84 98 112 126 140 154 168 182 196 210 224 238 266 280 308 322 336 350 364 378 392 420 434 462 476 490 504 518 532 546 574 588 602 616 630 644 658 686 700 714 728 </domain>
<domain for="eme[48]"> 14 28 42 56 84 98 126 140 154 168 182 196 224 238 252 266 280 294 308 322 336 350 364 378 392 406 420 448 462 476 490 504 518 532 546 574 588 602 616 630 658 672 686 728 </domain>
<domain for="eme[49]"> 14 42 56 70 84 98 112 126 140 154 168 182 210 224 238 252 266 280 294 308 336 350 364 378 392 406 420 434 448 462 476 490 504 518 532 546 560 574 588 602 616 630 644 658 672 686 700 714 728 </domain>
</array>
<array id="rec" note="rec[i]: frequence de reception de la station i" size="[50]">
<domain for="rec[0]"> 14 28 42 56 70 84 98 112 126 140 154 168 182 196 210 224 238 266 280 308 322 336 350 364 378 392 406 420 434 448 462 476 490 504 518 532 546 560 574 602 616 630 644 658 686 700 714 728 </domain>
<domain for="rec[1]"> 14 28 42 56 70 84 98 112 126 140 154 168 182 196 210 224 238 266 280 294 308 322 336 350 364 378 392 406 420 434 448 462 476 490 504 518 532 546 560 574 588 602 616 630 644 658 672 686 700 714 728 </domain>
<domain for="rec[2]"> 14 28 42 56 70 84 98 126 140 154 168 182 210 224 238 266 280 294 308 322 336 350 364 378 392 420 448 462 490 504 518 532 546 560 574 588 602 616 630 672 686 700 714 </domain>
<domain for="rec[3]"> 14 28 42 56 70 84 98 112 126 140 154 168 182 196 210 224 238 252 266 280 294 308 322 336 350 364 378 392 406 420 434 448 462 476 490 504 518 532 546 574 588 602 616 630 644 658 672 686 700 714 728 </domain>
<domain for="rec[4]"> 28 42 56 70 98 112 126 154 168 182 196 210 224 252 266 280 294 308 322 336 350 364 378 392 434 448 476 490 518 546 560 574 588 602 630 658 672 686 700 714 </domain>
<domain for="rec[5]"> 14 28 56 98 112 126 140 154 168 182 210 224 238 252 280 294 308 336 350 364 378 392 406 420 434 448 462 476 490 504 518 532 546 560 574 602 616 630 644 658 672 686 700 714 728 </domain>
<domain for="rec[6]"> 14 28 42 70 84 98 112 168 182 196 210 224 238 252 266 280 294 308 322 350 364 378 392 406 420 448 462 476 490 504 546 560 574 588 602 616 630 644 658 672 686 714 728 </domain>
<domain for="rec[7]"> 14 28 42 56 70 84 98 112 126 140 154 168 182 196 210 224 238 252 280 294 308 322 350 364 406 420 434 448 462 490 504 518 532 546 560 574 588 602 616 630 672 686 700 714 728 </domain>
<domain for="rec[8]"> 14 28 42 56 70 84 98 112 126 154 168 182 196 210 224 238 252 280 294 308 322 336 350 364 378 392 406 420 434 448 462 476 490 504 518 532 546 560 574 588 616 630 644 658 672 700 714 728 </domain>
<domain for="rec[9]"> 14 28 42 70 84 112 126 140 168 196 210 224 238 252 280 294 308 322 336 350 378 392 406 420 434 448 462 476 490 504 518 532 546 560 574 588 602 616 630 644 658 686 714 728 </domain>
<domain for="rec[10]"> 14 42 56 98 112 126 168 182 196 210 224 252 266 280 308 322 336 350 364 378 406 420 434 448 462 476 490 504 546 560 574 588 602 616 630 658 686 700 714 728 </domain>
<domain for="rec[11] rec[14] rec[21] rec[24] rec[30] rec[33] rec[37] rec[49]"> 14 28 42 56 70 84 98 112 126 140 154 168 182 196 210 224 238 252 266 280 294 308 322 336 350 364 378 392 406 420 434 448 462 476 490 504 518 532 546 560 574 588 602 616 630 644 658 672 686 700 714 728 </domain>
<domain for="rec[12]"> 28 42 56 70 84 140 154 168 182 196 210 224 238 252 266 280 294 308 322 336 350 364 378 392 406 420 434 448 462 476 490 504 518 532 546 560 574 588 602 616 630 644 658 672 700 714 728 </domain>
<domain for="rec[13]"> 14 28 56 70 84 98 112 126 140 154 168 182 196 210 224 238 252 280 294 308 322 336 350 364 378 406 420 434 448 476 490 504 518 532 546 574 588 602 616 630 658 672 686 700 714 728 </domain>
<domain for="rec[15]"> 14 28 42 56 70 98 112 126 154 168 196 210 224 238 252 266 280 294 308 322 336 350 378 392 406 420 434 462 490 518 532 546 560 574 602 616 630 644 658 700 728 </domain>
<domain for="rec[16]"> 28 42 56 70 84 98 112 126 140 154 168 182 196 210 224 238 252 266 280 294 308 322 336 350 364 378 392 406 420 434 448 462 476 490 504 518 532 546 560 574 588 602 616 630 644 658 672 686 700 714 728 </domain>
<domain for="rec[17]"> 14 28 56 70 84 98 112 126 140 154 168 196 210 224 238 252 266 280 294 308 322 336 364 392 420 448 462 504 518 532 546 560 574 602 616 630 644 672 686 700 714 728 </domain>
<domain for="rec[18]"> 14 28 42 70 84 98 112 126 154 168 182 196 210 224 238 252 280 294 308 322 364 378 392 434 448 462 476 504 518 546 560 574 588 616 630 644 658 672 686 700 714 728 </domain>
<domain for="rec[19]"> 14 28 42 56 70 84 98 112 126 140 154 168 182 196 210 224 238 252 266 280 294 308 322 336 350 364 378 392 406 420 434 462 476 490 518 532 546 560 574 588 602 616 630 644 658 672 714 728 </domain>
<domain for="rec[20]"> 14 28 42 56 70 84 98 112 126 140 154 168 182 196 210 224 252 266 280 294 308 322 336 350 364 392 406 420 434 448 476 490 518 532 546 560 574 588 616 630 644 672 686 700 714 728 </domain>
<domain for="rec[22]"> 14 28 56 84 98 112 126 140 154 182 196 210 224 252 266 294 308 322 336 364 378 392 406 420 434 448 462 476 490 518 532 546 574 588 602 616 630 644 658 672 686 714 728 </domain>
<domain for="rec[23]"> 28 56 70 98 112 126 140 154 168 182 196 224 238 252 280 294 308 336 350 364 378 392 406 420 448 462 476 490 504 518 560 574 588 602 616 630 644 658 672 686 700 714 728 </domain>
<domain for="rec[25]"> 14 28 42 56 70 84 98 112 126 140 154 168 210 224 252 266 322 336 350 364 378 392 406 420 434 448 462 476 490 504 518 532 546 560 588 602 616 630 644 658 672 686 700 728 </domain>
<domain for="rec[26]"> 14 28 56 70 84 98 112 126 140 154 182 210 224 238 252 266 280 294 308 336 350 364 378 392 406 420 434 448 462 476 490 504 518 532 546 560 588 602 616 630 644 658 672 686 700 714 728 </domain>
<domain for="rec[27]"> 14 28 56 70 84 98 112 126 140 154 168 182 196 210 224 238 252 266 280 294 308 322 336 350 364 392 406 420 434 448 462 476 504 518 532 546 560 574 588 602 616 630 644 658 672 686 700 714 728 </domain>
<domain for="rec[28]"> 14 28 56 70 84 98 112 126 140 168 182 196 210 224 238 252 266 280 294 308 322 336 350 364 406 420 434 448 462 476 490 504 518 532 560 574 588 602 616 630 644 658 672 686 700 714 728 </domain>
<domain for="rec[29]"> 14 28 42 84 98 112 126 140 154 168 182 196 210 224 238 252 266 280 294 308 322 336 350 364 378 392 420 434 462 476 490 504 518 532 546 560 574 588 602 616 630 644 672 686 700 714 728 </domain>
<domain for="rec[31]"> 14 28 70 84 112 126 140 154 168 182 196 224 238 252 266 280 294 308 322 336 364 378 406 420 434 448 462 476 490 504 518 532 546 560 574 588 602 616 630 644 658 672 686 700 714 728 </domain>
<domain for="rec[32]"> 14 28 56 70 112 140 154 168 182 210 224 252 266 280 294 322 336 350 364 378 392 406 420 434 448 462 476 490 504 518 546 560 574 588 616 644 658 672 686 714 728 </domain>
<domain for="rec[34]"> 14 28 42 56 70 84 98 112 140 154 168 182 196 210 224 238 252 266 280 294 308 322 336 350 364 378 392 406 420 434 448 462 476 490 504 518 532 546 560 574 588 616 658 672 686 700 714 728 </domain>
<domain for="rec[35]"> 14 28 42 56 84 98 112 126 140 154 168 182 196 210 224 238 252 266 280 294 308 322 336 350 378 392 406 420 434 448 462 476 490 504 518 532 546 560 574 588 602 616 644 658 672 686 700 728 </domain>
<domain for="rec[36]"> 14 28 42 56 70 98 112 126 140 154 168 182 196 210 224 238 252 266 280 294 308 322 336 350 364 378 392 406 420 434 448 462 476 490 504 518 532 546 560 574 588 602 616 644 672 686 714 728 </domain>
<domain for="rec[38]"> 14 28 56 70 84 98 112 126 140 154 182 196 210 224 238 252 266 280 294 308 336 350 364 378 406 420 448 462 476 490 504 518 532 546 560 574 588 602 616 630 644 658 672 686 700 714 728 </domain>
<domain for="rec[39]"> 14 28 42 56 70 84 112 126 140 168 182 224 238 252 266 280 294 308 322 336 350 364 392 406 420 434 448 462 476 490 504 532 546 560 602 630 658 686 700 714 </domain>
<domain for="rec[40]"> 14 28 42 56 84 98 112 126 154 168 182 196 210 224 238 252 266 294 308 322 336 350 392 406 420 434 462 476 490 504 518 532 546 560 574 588 602 630 644 658 672 686 700 714 728 </domain>
<domain for="rec[41]"> 14 28 42 56 70 84 98 112 126 140 168 182 196 224 238 252 266 280 294 308 322 336 350 364 378 392 406 420 434 448 462 476 490 504 532 546 560 574 588 616 630 644 658 700 714 728 </domain>
<domain for="rec[42]"> 14 42 56 70 84 98 126 140 154 168 210 224 238 252 266 280 294 308 322 336 350 364 392 406 420 434 448 462 476 490 504 518 532 546 588 602 616 630 644 658 672 686 700 714 728 </domain>
<domain for="rec[43]"> 14 28 42 56 70 84 98 112 126 140 154 168 210 224 280 294 308 322 336 350 364 392 420 434 448 462 476 490 504 518 546 560 574 602 616 630 644 658 672 728 </domain>
<domain for="rec[44]"> 28 42 56 70 84 98 112 154 182 196 210 224 238 266 280 294 308 322 350 364 378 406 420 434 448 462 476 504 518 532 546 560 574 588 602 616 630 644 658 672 686 700 714 728 </domain>
<domain for="rec[45]"> 14 28 42 56 84 112 126 154 168 196 210 224 238 252 266 280 294 308 336 364 392 406 420 434 448 462 476 504 518 532 546 560 574 588 602 616 630 644 658 672 686 700 714 728 </domain>
<domain for="rec[46]"> 14 28 42 56 70 84 98 112 154 182 196 210 224 238 252 266 280 294 308 336 350 364 378 392 406 420 434 462 476 490 504 518 532 560 574 588 616 630 644 658 672 686 700 714 728 </domain>
<domain for="rec[47]"> 14 28 42 56 70 84 98 112 126 140 154 168 182 196 210 224 238 252 280 294 308 322 336 350 364 392 406 434 448 462 476 490 504 518 532 546 560 574 588 602 616 630 644 658 672 686 700 714 </domain>
<domain for="rec[48]"> 14 28 84 98 112 126 140 154 168 182 196 210 238 280 294 322 336 350 364 378 392 406 420 434 448 462 490 504 532 546 560 588 602 616 658 672 686 700 714 728 </domain>
</array>
<var id="mini" note="mini est le nombre de fréquence différentes utilisées"> 0..97 </var>
</variables>
<constraints>
<group note="Ecart de frequence entre eme et rec d'une station">
<intension> eq(dist(%0,%1),%2) </intension>
<args> eme[0] rec[0] 266 </args>
<args> eme[1] rec[1] 266 </args>
<args> eme[2] rec[2] 266 </args>
<args> eme[3] rec[3] 266 </args>
<args> eme[4] rec[4] 266 </args>
<args> eme[5] rec[5] 266 </args>
<args> eme[6] rec[6] 266 </args>
<args> eme[7] rec[7] 266 </args>
<args> eme[8] rec[8] 266 </args>
<args> eme[9] rec[9] 266 </args>
<args> eme[10] rec[10] 266 </args>
<args> eme[11] rec[11] 266 </args>
<args> eme[12] rec[12] 266 </args>
<args> eme[13] rec[13] 266 </args>
<args> eme[14] rec[14] 266 </args>
<args> eme[15] rec[15] 266 </args>
<args> eme[16] rec[16] 266 </args>
<args> eme[17] rec[17] 266 </args>
<args> eme[18] rec[18] 266 </args>
<args> eme[19] rec[19] 266 </args>
<args> eme[20] rec[20] 266 </args>
<args> eme[21] rec[21] 266 </args>
<args> eme[22] rec[22] 266 </args>
<args> eme[23] rec[23] 266 </args>
<args> eme[24] rec[24] 266 </args>
<args> eme[25] rec[25] 266 </args>
<args> eme[26] rec[26] 266 </args>
<args> eme[27] rec[27] 266 </args>
<args> eme[28] rec[28] 266 </args>
<args> eme[29] rec[29] 266 </args>
<args> eme[30] rec[30] 266 </args>
<args> eme[31] rec[31] 266 </args>
<args> eme[32] rec[32] 266 </args>
<args> eme[33] rec[33] 266 </args>
<args> eme[34] rec[34] 266 </args>
<args> eme[35] rec[35] 266 </args>
<args> eme[36] rec[36] 266 </args>
<args> eme[37] rec[37] 266 </args>
<args> eme[38] rec[38] 266 </args>
<args> eme[39] rec[39] 266 </args>
<args> eme[40] rec[40] 266 </args>
<args> eme[41] rec[41] 266 </args>
<args> eme[42] rec[42] 266 </args>
<args> eme[43] rec[43] 266 </args>
<args> eme[44] rec[44] 266 </args>
<args> eme[45] rec[45] 266 </args>
<args> eme[46] rec[46] 266 </args>
<args> eme[47] rec[47] 266 </args>
<args> eme[48] rec[48] 266 </args>
<args> eme[49] rec[49] 266 </args>
</group>
<group note="Ecart de frequence necessaire entre stations proches">
<intension> ge(dist(%0,%1),%2) </intension>
<args> eme[0] eme[10] 20 </args>
<args> eme[0] rec[10] 20 </args>
<args> rec[0] eme[10] 20 </args>
<args> rec[0] rec[10] 20 </args>
<args> eme[0] eme[30] 30 </args>
<args> eme[0] rec[30] 30 </args>
<args> rec[0] eme[30] 30 </args>
<args> rec[0] rec[30] 30 </args>
<args> eme[0] eme[22] 40 </args>
<args> eme[0] rec[22] 40 </args>
<args> rec[0] eme[22] 40 </args>
<args> rec[0] rec[22] 40 </args>
<args> eme[1] eme[21] 40 </args>
<args> eme[1] rec[21] 40 </args>
<args> rec[1] eme[21] 40 </args>
<args> rec[1] rec[21] 40 </args>
<args> eme[2] eme[40] 50 </args>
<args> eme[2] rec[40] 50 </args>
<args> rec[2] eme[40] 50 </args>
<args> rec[2] rec[40] 50 </args>
<args> eme[3] eme[13] 50 </args>
<args> eme[3] rec[13] 50 </args>
<args> rec[3] eme[13] 50 </args>
<args> rec[3] rec[13] 50 </args>
<args> eme[3] eme[33] 50 </args>
<args> eme[3] rec[33] 50 </args>
<args> rec[3] eme[33] 50 </args>
<args> rec[3] rec[33] 50 </args>
<args> eme[4] eme[38] 40 </args>
<args> eme[4] rec[38] 40 </args>
<args> rec[4] eme[38] 40 </args>
<args> rec[4] rec[38] 40 </args>
<args> eme[4] eme[6] 40 </args>
<args> eme[4] rec[6] 40 </args>
<args> rec[4] eme[6] 40 </args>
<args> rec[4] rec[6] 40 </args>
<args> eme[4] eme[29] 50 </args>
<args> eme[4] rec[29] 50 </args>
<args> rec[4] eme[29] 50 </args>
<args> rec[4] rec[29] 50 </args>
<args> eme[4] eme[34] 40 </args>
<args> eme[4] rec[34] 40 </args>
<args> rec[4] eme[34] 40 </args>
<args> rec[4] rec[34] 40 </args>
<args> eme[4] eme[42] 40 </args>
<args> eme[4] rec[42] 40 </args>
<args> rec[4] eme[42] 40 </args>
<args> rec[4] rec[42] 40 </args>
<args> eme[5] eme[25] 40 </args>
<args> eme[5] rec[25] 40 </args>
<args> rec[5] eme[25] 40 </args>
<args> rec[5] rec[25] 40 </args>
<args> eme[5] eme[16] 30 </args>
<args> eme[5] rec[16] 30 </args>
<args> rec[5] eme[16] 30 </args>
<args> rec[5] rec[16] 30 </args>
<args> eme[5] eme[35] 50 </args>
<args> eme[5] rec[35] 50 </args>
<args> rec[5] eme[35] 50 </args>
<args> rec[5] rec[35] 50 </args>
<args> eme[5] eme[39] 40 </args>
<args> eme[5] rec[39] 40 </args>
<args> rec[5] eme[39] 40 </args>
<args> rec[5] rec[39] 40 </args>
<args> eme[5] eme[22] 20 </args>
<args> eme[5] rec[22] 20 </args>
<args> rec[5] eme[22] 20 </args>
<args> rec[5] rec[22] 20 </args>
<args> eme[6] eme[46] 20 </args>
<args> eme[6] rec[46] 20 </args>
<args> rec[6] eme[46] 20 </args>
<args> rec[6] rec[46] 20 </args>
<args> eme[6] eme[9] 40 </args>
<args> eme[6] rec[9] 40 </args>
<args> rec[6] eme[9] 40 </args>
<args> rec[6] rec[9] 40 </args>
<args> eme[6] eme[24] 20 </args>
<args> eme[6] rec[24] 20 </args>
<args> rec[6] eme[24] 20 </args>
<args> rec[6] rec[24] 20 </args>
<args> eme[7] eme[15] 30 </args>
<args> eme[7] rec[15] 30 </args>
<args> rec[7] eme[15] 30 </args>
<args> rec[7] rec[15] 30 </args>
<args> eme[7] eme[22] 50 </args>
<args> eme[7] rec[22] 50 </args>
<args> rec[7] eme[22] 50 </args>
<args> rec[7] rec[22] 50 </args>
<args> eme[8] eme[29] 50 </args>
<args> eme[8] rec[29] 50 </args>
<args> rec[8] eme[29] 50 </args>
<args> rec[8] rec[29] 50 </args>
<args> eme[10] eme[18] 40 </args>
<args> eme[10] rec[18] 40 </args>
<args> rec[10] eme[18] 40 </args>
<args> rec[10] rec[18] 40 </args>
<args> eme[10] eme[13] 50 </args>
<args> eme[10] rec[13] 50 </args>
<args> rec[10] eme[13] 50 </args>
<args> rec[10] rec[13] 50 </args>
<args> eme[12] eme[37] 40 </args>
<args> eme[12] rec[37] 40 </args>
<args> rec[12] eme[37] 40 </args>
<args> rec[12] rec[37] 40 </args>
<args> eme[15] eme[25] 20 </args>
<args> eme[15] rec[25] 20 </args>
<args> rec[15] eme[25] 20 </args>
<args> rec[15] rec[25] 20 </args>
<args> eme[15] eme[20] 20 </args>
<args> eme[15] rec[20] 20 </args>
<args> rec[15] eme[20] 20 </args>
<args> rec[15] rec[20] 20 </args>
<args> eme[17] eme[30] 40 </args>
<args> eme[17] rec[30] 40 </args>
<args> rec[17] eme[30] 40 </args>
<args> rec[17] rec[30] 40 </args>
<args> eme[17] eme[18] 30 </args>
<args> eme[17] rec[18] 30 </args>
<args> rec[17] eme[18] 30 </args>
<args> rec[17] rec[18] 30 </args>
<args> eme[18] eme[30] 20 </args>
<args> eme[18] rec[30] 20 </args>
<args> rec[18] eme[30] 20 </args>
<args> rec[18] rec[30] 20 </args>
<args> eme[19] eme[23] 20 </args>
<args> eme[19] rec[23] 20 </args>
<args> rec[19] eme[23] 20 </args>
<args> rec[19] rec[23] 20 </args>
<args> eme[19] eme[36] 50 </args>
<args> eme[19] rec[36] 50 </args>
<args> rec[19] eme[36] 50 </args>
<args> rec[19] rec[36] 50 </args>
<args> eme[20] eme[35] 20 </args>
<args> eme[20] rec[35] 20 </args>
<args> rec[20] eme[35] 20 </args>
<args> rec[20] rec[35] 20 </args>
<args> eme[20] eme[22] 50 </args>
<args> eme[20] rec[22] 50 </args>
<args> rec[20] eme[22] 50 </args>
<args> rec[20] rec[22] 50 </args>
<args> eme[21] eme[32] 20 </args>
<args> eme[21] rec[32] 20 </args>
<args> rec[21] eme[32] 20 </args>
<args> rec[21] rec[32] 20 </args>
<args> eme[22] eme[30] 40 </args>
<args> eme[22] rec[30] 40 </args>
<args> rec[22] eme[30] 40 </args>
<args> rec[22] rec[30] 40 </args>
<args> eme[22] eme[45] 20 </args>
<args> eme[22] rec[45] 20 </args>
<args> rec[22] eme[45] 20 </args>
<args> rec[22] rec[45] 20 </args>
<args> eme[22] eme[31] 40 </args>
<args> eme[22] rec[31] 40 </args>
<args> rec[22] eme[31] 40 </args>
<args> rec[22] rec[31] 40 </args>
<args> eme[23] eme[40] 50 </args>
<args> eme[23] rec[40] 50 </args>
<args> rec[23] eme[40] 50 </args>
<args> rec[23] rec[40] 50 </args>
<args> eme[24] eme[32] 50 </args>
<args> eme[24] rec[32] 50 </args>
<args> rec[24] eme[32] 50 </args>
<args> rec[24] rec[32] 50 </args>
<args> eme[25] eme[35] 20 </args>
<args> eme[25] rec[35] 20 </args>
<args> rec[25] eme[35] 20 </args>
<args> rec[25] rec[35] 20 </args>
<args> eme[26] eme[47] 20 </args>
<args> eme[26] rec[47] 20 </args>
<args> rec[26] eme[47] 20 </args>
<args> rec[26] rec[47] 20 </args>
<args> eme[27] eme[41] 50 </args>
<args> eme[27] rec[41] 50 </args>
<args> rec[27] eme[41] 50 </args>
<args> rec[27] rec[41] 50 </args>
<args> eme[27] eme[31] 20 </args>
<args> eme[27] rec[31] 20 </args>
<args> rec[27] eme[31] 20 </args>
<args> rec[27] rec[31] 20 </args>
<args> eme[28] eme[31] 50 </args>
<args> eme[28] rec[31] 50 </args>
<args> rec[28] eme[31] 50 </args>
<args> rec[28] rec[31] 50 </args>
<args> eme[29] eme[31] 30 </args>
<args> eme[29] rec[31] 30 </args>
<args> rec[29] eme[31] 30 </args>
<args> rec[29] rec[31] 30 </args>
<args> eme[30] eme[47] 30 </args>
<args> eme[30] rec[47] 30 </args>
<args> rec[30] eme[47] 30 </args>
<args> rec[30] rec[47] 30 </args>
<args> eme[31] eme[49] 20 </args>
<args> eme[31] rec[49] 20 </args>
<args> rec[31] eme[49] 20 </args>
<args> rec[31] rec[49] 20 </args>
<args> eme[33] eme[49] 50 </args>
<args> eme[33] rec[49] 50 </args>
<args> rec[33] eme[49] 50 </args>
<args> rec[33] rec[49] 50 </args>
<args> eme[33] eme[43] 30 </args>
<args> eme[33] rec[43] 30 </args>
<args> rec[33] eme[43] 30 </args>
<args> rec[33] rec[43] 30 </args>
<args> eme[37] eme[44] 20 </args>
<args> eme[37] rec[44] 20 </args>
<args> rec[37] eme[44] 20 </args>
<args> rec[37] rec[44] 20 </args>
<args> eme[38] eme[46] 20 </args>
<args> eme[38] rec[46] 20 </args>
<args> rec[38] eme[46] 20 </args>
<args> rec[38] rec[46] 20 </args>
<args> eme[41] eme[48] 40 </args>
<args> eme[41] rec[48] 40 </args>
<args> rec[41] eme[48] 40 </args>
<args> rec[41] rec[48] 40 </args>
<args> eme[44] eme[48] 20 </args>
<args> eme[44] rec[48] 20 </args>
<args> rec[44] eme[48] 20 </args>
<args> rec[44] rec[48] 20 </args>
</group>
<group note="Liaisons entre stations">
<intension> eq(%0,%1) </intension>
<args> eme[0] rec[17] </args>
<args> rec[0] eme[17] </args>
<args> eme[6] rec[38] </args>
<args> rec[6] eme[38] </args>
<args> eme[7] rec[11] </args>
<args> rec[7] eme[11] </args>
<args> eme[13] rec[22] </args>
<args> rec[13] eme[22] </args>
<args> eme[14] rec[31] </args>
<args> rec[14] eme[31] </args>
<args> eme[32] rec[36] </args>
<args> rec[32] eme[36] </args>
<args> eme[37] rec[42] </args>
<args> rec[37] eme[42] </args>
</group>
<nValues note="Nombre de frequences differentes utilisees pour la region 0">
<list> eme[5] rec[5] eme[7] rec[7] eme[11] rec[11] eme[39] rec[39] eme[43] rec[43] </list>
<condition> (le,10) </condition>
</nValues>
<nValues note="Nombre de frequences differentes utilisees pour la region 1">
<list> eme[1] rec[1] eme[4] rec[4] eme[8] rec[8] eme[9] rec[9] eme[21] rec[21] eme[24] rec[24] eme[32] rec[32] eme[36] rec[36] eme[38] rec[38] eme[46] rec[46] </list>
<condition> (le,20) </condition>
</nValues>
<nValues note="Nombre de frequences differentes utilisees pour la region 2">
<list> eme[12] rec[12] eme[14] rec[14] eme[27] rec[27] eme[37] rec[37] eme[41] rec[41] eme[42] rec[42] eme[44] rec[44] eme[48] rec[48] </list>
<condition> (le,16) </condition>
</nValues>
<nValues note="Nombre de frequences differentes utilisees pour la region 3">
<list> eme[15] rec[15] eme[16] rec[16] eme[20] rec[20] eme[22] rec[22] eme[25] rec[25] eme[26] rec[26] eme[35] rec[35] eme[47] rec[47] </list>
<condition> (le,15) </condition>
</nValues>
<nValues note="Nombre de frequences differentes utilisees pour la region 4">
<list> eme[2] rec[2] eme[6] rec[6] eme[19] rec[19] eme[23] rec[23] eme[28] rec[28] eme[29] rec[29] eme[40] rec[40] </list>
<condition> (le,14) </condition>
</nValues>
<nValues note="Nombre de frequences differentes utilisees pour la region 5">
<list> eme[31] rec[31] eme[34] rec[34] eme[49] rec[49] </list>
<condition> (le,4) </condition>
</nValues>
<nValues note="Nombre de frequences differentes utilisees pour la region 6">
<list> eme[0] rec[0] eme[3] rec[3] eme[10] rec[10] eme[13] rec[13] eme[17] rec[17] eme[18] rec[18] eme[30] rec[30] eme[33] rec[33] eme[45] rec[45] </list>
<condition> (le,18) </condition>
</nValues>
<nValues note="Nombre de frequences differentes utilisees">
<list> eme[] rec[] </list>
<condition> (eq,mini) </condition>
</nValues>
</constraints>
<objectives>
<minimize> mini </minimize>
</objectives>
</instance>
